NAME : portcgen-27-12
COMMENT : portcgen N=27, seed=12
TYPE : TSP
DIMENSION : 27
EDGE_WEIGHT_TYPE : EUC_2D
NODE_COORD_SECTION
1 96841 197773
2 2486 29794
3 -175169 -86945
4 125177 231471
5 -284896 -221004
6 -39210 103049
7 -13038 381661
8 267892 148550
9 150642 204570
10 107353 -9803
11 237338 -15216
12 289785 239957
13 117007 -191034
14 83449 -20673
15 -251525 272210
16 363129 532165
17 -294897 -175967
18 171643 -12921
19 -135330 -307719
20 56369 14341
21 394828 -67495
22 128192 -179608
23 -21287 -8925
24 78421 -1456
25 -86324 226421
26 -159301 -175602
27 -62643 15246
